Version identifier: 22.1.0.0 | 2022-03-09 | 1a383f8ce
CPXPARAM_Threads                                 1
CPXPARAM_MIP_Strategy_VariableSelect             3
CPXPARAM_TimeLimit                               600
Tried aggregator 1 time.
Reduced MIP has 1825 rows, 10500 columns, and 106273 nonzeros.
Reduced MIP has 9000 binaries, 1500 generals, 0 SOSs, and 0 indicators.
Presolve time = 0.06 sec. (41.89 ticks)
Found incumbent of value 1372.000000 after 0.15 sec. (101.77 ticks)
Tried aggregator 1 time.
Detecting symmetries...
Reduced MIP has 1825 rows, 10500 columns, and 106273 nonzeros.
Reduced MIP has 9000 binaries, 1500 generals, 0 SOSs, and 0 indicators.
Presolve time = 0.07 sec. (51.93 ticks)
Probing time = 0.01 sec. (9.33 ticks)
Clique table members: 301.
MIP emphasis: balance optimality and feasibility.
MIP search method: dynamic search.
Parallel mode: none, using 1 thread.
Root relaxation solution time = 0.09 sec. (74.36 ticks)

        Nodes                                         Cuts/
   Node  Left     Objective  IInf  Best Integer    Best Bound    ItCnt     Gap

*     0+    0                         1372.0000        0.0000           100.00%
      0     0        0.0000   514     1372.0000        0.0000      938  100.00%
*     0+    0                            0.0000        0.0000             0.00%
      0     0        cutoff              0.0000        0.0000      938    0.00%
Elapsed time = 1.55 sec. (1545.96 ticks, tree = 0.01 MB, solutions = 2)

Root node processing (before b&c):
  Real time             =    1.56 sec. (1546.34 ticks)
Sequential b&c:
  Real time             =    0.00 sec. (0.00 ticks)
                          ------------
Total (root+branch&cut) =    1.56 sec. (1546.34 ticks)
Primal number of violations:	0
Dual number of violations:	0
Status:	Optimal
Time:	1.59
Sequence:
	4
	4
	2
	15
	0
	8
	18
	18
	6
	3
	21
	21
	6
	22
	13
	13
	21
	22
	18
	21
	13
	13
	13
	21
	21
	22
	21
	14
	13
	12
	0
	24
	20
	20
	20
	21
	20
	21
	6
	21
	12
	21
	14
	22
	0
	13
	3
	12
	17
	17
	16
	17
	17
	20
	20
	17
	20
	20
	3
	20
	15
	15
	3
	1
	15
	15
	15
	17
	18
	9
	0
	0
	6
	16
	5
	14
	20
	0
	20
	20
	10
	6
	10
	15
	22
	7
	10
	10
	22
	11
	8
	2
	23
	22
	24
	1
	8
	2
	16
	1
	5
	16
	16
	16
	3
	16
	16
	21
	16
	16
	1
	0
	4
	6
	6
	12
	12
	12
	0
	3
	24
	0
	13
	10
	20
	6
	6
	6
	6
	0
	6
	23
	24
	8
	5
	15
	22
	20
	6
	6
	21
	12
	21
	23
	12
	21
	23
	12
	14
	20
	12
	12
	12
	0
	3
	14
	14
	16
	9
	17
	13
	24
	13
	6
	9
	0
	0
	22
	3
	3
	16
	3
	3
	3
	6
	3
	3
	3
	6
	3
	6
	6
	6
	6
	3
	3
	5
	5
	9
	1
	6
	9
	7
	5
	20
	8
	19
	9
	5
	23
	8
	1
	3
	3
	1
	3
	3
	3
	1
	1
	6
	3
	1
	1
	9
	9
	3
	7
	7
	0
	4
	7
	9
	9
	13
	20
	9
	16
	16
	16
	17
	16
	16
	16
	16
	17
	5
	6
	4
	4
	0
	4
	4
	0
	4
	4
	4
	4
	16
	4
	4
	4
	5
	16
	5
	6
	0
	20
	14
	24
	9
	0
	12
	1
	4
	6
	1
	10
	6
	11
	12
	11
	11
	3
	11
	0
	9
	11
	12
	11
	0
	3
	0
	5
	13
	6
	13
	6
	6
	6
	10
	2
	8
	8
	6
	9
	23
	8
	5
	8
